
(set-logic HORN)
(define-fun Z_1749 () Int 0)
(define-fun S_391 ((x Int)) Int (+ x 1))
(declare-fun diseqInt (Int Int) Bool)
(declare-fun unS_575 (Int Int) Bool)
(declare-fun isZ_360 (Int) Bool)
(declare-fun isS_360 (Int) Bool)
(assert (forall ((x_51855 Int))
	(unS_575 x_51855 (S_391 x_51855))))
(assert (isZ_360 Z_1749))
(assert (forall ((x_51857 Int))
	(isS_360 (S_391 x_51857))))
(assert (forall ((x_51858 Int))
	(diseqInt Z_1749 (S_391 x_51858))))
(assert (forall ((x_51859 Int))
	(diseqInt (S_391 x_51859) Z_1749)))
(assert (forall ((x_51860 Int) (x_51861 Int))
	(=> (diseqInt x_51860 x_51861) (diseqInt (S_391 x_51860) (S_391 x_51861)))))
(declare-fun add_308 (Int Int Int) Bool)
(declare-fun minus_305 (Int Int Int) Bool)
(declare-fun le_287 (Int Int) Bool)
(declare-fun ge_287 (Int Int) Bool)
(declare-fun lt_306 (Int Int) Bool)
(declare-fun gt_290 (Int Int) Bool)
(declare-fun mult_287 (Int Int Int) Bool)
(declare-fun div_287 (Int Int Int) Bool)
(declare-fun mod_289 (Int Int Int) Bool)
(assert (forall ((y_1969 Int))
	(add_308 y_1969 Z_1749 y_1969)))
(assert (forall ((x_51849 Int) (y_1969 Int) (r_356 Int))
	(=> (add_308 r_356 x_51849 y_1969) (add_308 (S_391 r_356) (S_391 x_51849) y_1969))))
(assert (forall ((y_1969 Int))
	(minus_305 Z_1749 Z_1749 y_1969)))
(assert (forall ((x_51849 Int) (y_1969 Int) (r_356 Int))
	(=> (minus_305 r_356 x_51849 y_1969) (minus_305 (S_391 r_356) (S_391 x_51849) y_1969))))
(assert (forall ((y_1969 Int))
	(le_287 Z_1749 y_1969)))
(assert (forall ((x_51849 Int) (y_1969 Int))
	(=> (le_287 x_51849 y_1969) (le_287 (S_391 x_51849) (S_391 y_1969)))))
(assert (forall ((y_1969 Int))
	(ge_287 y_1969 Z_1749)))
(assert (forall ((x_51849 Int) (y_1969 Int))
	(=> (ge_287 x_51849 y_1969) (ge_287 (S_391 x_51849) (S_391 y_1969)))))
(assert (forall ((y_1969 Int))
	(lt_306 Z_1749 (S_391 y_1969))))
(assert (forall ((x_51849 Int) (y_1969 Int))
	(=> (lt_306 x_51849 y_1969) (lt_306 (S_391 x_51849) (S_391 y_1969)))))
(assert (forall ((y_1969 Int))
	(gt_290 (S_391 y_1969) Z_1749)))
(assert (forall ((x_51849 Int) (y_1969 Int))
	(=> (gt_290 x_51849 y_1969) (gt_290 (S_391 x_51849) (S_391 y_1969)))))
(assert (forall ((y_1969 Int))
	(mult_287 Z_1749 Z_1749 y_1969)))
(assert (forall ((x_51849 Int) (y_1969 Int) (r_356 Int) (z_1750 Int))
	(=> (and (mult_287 r_356 x_51849 y_1969) (add_308 z_1750 r_356 y_1969)) (mult_287 z_1750 (S_391 x_51849) y_1969))))
(assert (forall ((x_51849 Int) (y_1969 Int))
	(=> (lt_306 x_51849 y_1969) (div_287 Z_1749 x_51849 y_1969))))
(assert (forall ((x_51849 Int) (y_1969 Int) (r_356 Int) (z_1750 Int))
	(=> (and (ge_287 x_51849 y_1969) (minus_305 z_1750 x_51849 y_1969) (div_287 r_356 z_1750 y_1969)) (div_287 (S_391 r_356) x_51849 y_1969))))
(assert (forall ((x_51849 Int) (y_1969 Int))
	(=> (lt_306 x_51849 y_1969) (mod_289 x_51849 x_51849 y_1969))))
(assert (forall ((x_51849 Int) (y_1969 Int) (r_356 Int) (z_1750 Int))
	(=> (and (ge_287 x_51849 y_1969) (minus_305 z_1750 x_51849 y_1969) (mod_289 r_356 z_1750 y_1969)) (mod_289 r_356 x_51849 y_1969))))
(declare-datatypes ((Bool_287 0)) (((false_287) (true_287))))
(declare-fun diseqBool_135 (Bool_287 Bool_287) Bool)
(declare-fun isfalse_135 (Bool_287) Bool)
(declare-fun istrue_135 (Bool_287) Bool)
(assert (isfalse_135 false_287))
(assert (istrue_135 true_287))
(assert (diseqBool_135 false_287 true_287))
(assert (diseqBool_135 true_287 false_287))
(declare-fun and_287 (Bool_287 Bool_287 Bool_287) Bool)
(declare-fun or_293 (Bool_287 Bool_287 Bool_287) Bool)
(declare-fun hence_287 (Bool_287 Bool_287 Bool_287) Bool)
(declare-fun not_291 (Bool_287 Bool_287) Bool)
(assert (and_287 false_287 false_287 false_287))
(assert (and_287 false_287 true_287 false_287))
(assert (and_287 false_287 false_287 true_287))
(assert (and_287 true_287 true_287 true_287))
(assert (or_293 false_287 false_287 false_287))
(assert (or_293 true_287 true_287 false_287))
(assert (or_293 true_287 false_287 true_287))
(assert (or_293 true_287 true_287 true_287))
(assert (hence_287 true_287 false_287 false_287))
(assert (hence_287 false_287 true_287 false_287))
(assert (hence_287 true_287 false_287 true_287))
(assert (hence_287 true_287 true_287 true_287))
(assert (not_291 true_287 false_287))
(assert (not_291 false_287 true_287))
(declare-datatypes ((list_204 0)) (((nil_232) (cons_204 (head_408 Int) (tail_408 list_204)))))
(declare-fun diseqlist_204 (list_204 list_204) Bool)
(declare-fun head_409 (Int list_204) Bool)
(declare-fun tail_409 (list_204 list_204) Bool)
(declare-fun isnil_232 (list_204) Bool)
(declare-fun iscons_204 (list_204) Bool)
(assert (forall ((x_51865 Int) (x_51866 list_204))
	(head_409 x_51865 (cons_204 x_51865 x_51866))))
(assert (forall ((x_51865 Int) (x_51866 list_204))
	(tail_409 x_51866 (cons_204 x_51865 x_51866))))
(assert (isnil_232 nil_232))
(assert (forall ((x_51868 Int) (x_51869 list_204))
	(iscons_204 (cons_204 x_51868 x_51869))))
(assert (forall ((x_51870 Int) (x_51871 list_204))
	(diseqlist_204 nil_232 (cons_204 x_51870 x_51871))))
(assert (forall ((x_51872 Int) (x_51873 list_204))
	(diseqlist_204 (cons_204 x_51872 x_51873) nil_232)))
(assert (forall ((x_51874 Int) (x_51875 list_204) (x_51876 Int) (x_51877 list_204))
	(=> (diseqInt x_51874 x_51876) (diseqlist_204 (cons_204 x_51874 x_51875) (cons_204 x_51876 x_51877)))))
(assert (forall ((x_51874 Int) (x_51875 list_204) (x_51876 Int) (x_51877 list_204))
	(=> (diseqlist_204 x_51875 x_51877) (diseqlist_204 (cons_204 x_51874 x_51875) (cons_204 x_51876 x_51877)))))
(declare-fun take_46 (list_204 Int list_204) Bool)
(assert (forall ((x_51803 Int) (y_1962 list_204))
	(=> (le_287 x_51803 Z_1749) (take_46 nil_232 x_51803 y_1962))))
(assert (forall ((x_51850 Int) (x_51816 list_204) (z_1744 Int) (xs_559 list_204) (x_51803 Int))
	(=> (and (gt_290 x_51803 Z_1749) (take_46 x_51816 x_51850 xs_559) (minus_305 x_51850 x_51803 (S_391 Z_1749))) (take_46 (cons_204 z_1744 x_51816) x_51803 (cons_204 z_1744 xs_559)))))
(assert (forall ((x_51803 Int) (y_1962 list_204))
	(=> (le_287 x_51803 Z_1749) (take_46 nil_232 x_51803 y_1962))))
(assert (forall ((x_51803 Int))
	(=> (gt_290 x_51803 Z_1749) (take_46 nil_232 x_51803 nil_232))))
(declare-fun ordered_23 (Bool_287 list_204) Bool)
(assert (forall ((x_51819 Bool_287) (y_1964 Int) (xs_560 list_204) (y_1963 Int))
	(=> (and (le_287 y_1963 y_1964) (ordered_23 x_51819 (cons_204 y_1964 xs_560))) (ordered_23 x_51819 (cons_204 y_1963 (cons_204 y_1964 xs_560))))))
(assert (forall ((y_1964 Int) (xs_560 list_204) (y_1963 Int))
	(=> (gt_290 y_1963 y_1964) (ordered_23 false_287 (cons_204 y_1963 (cons_204 y_1964 xs_560))))))
(assert (forall ((y_1963 Int))
	(ordered_23 true_287 (cons_204 y_1963 nil_232))))
(assert (ordered_23 true_287 nil_232))
(declare-fun lmerge_14 (list_204 list_204 list_204) Bool)
(assert (forall ((x_51825 list_204) (x_51807 Int) (x_51808 list_204) (z_1746 Int) (x_51806 list_204))
	(=> (and (le_287 z_1746 x_51807) (lmerge_14 x_51825 x_51806 (cons_204 x_51807 x_51808))) (lmerge_14 (cons_204 z_1746 x_51825) (cons_204 z_1746 x_51806) (cons_204 x_51807 x_51808)))))
(assert (forall ((x_51827 list_204) (x_51807 Int) (x_51808 list_204) (z_1746 Int) (x_51806 list_204))
	(=> (and (gt_290 z_1746 x_51807) (lmerge_14 x_51827 (cons_204 z_1746 x_51806) x_51808)) (lmerge_14 (cons_204 x_51807 x_51827) (cons_204 z_1746 x_51806) (cons_204 x_51807 x_51808)))))
(assert (forall ((z_1746 Int) (x_51806 list_204))
	(lmerge_14 (cons_204 z_1746 x_51806) (cons_204 z_1746 x_51806) nil_232)))
(assert (forall ((x_51829 list_204))
	(lmerge_14 x_51829 nil_232 x_51829)))
(declare-fun length_36 (Int list_204) Bool)
(assert (forall ((x_51830 Int) (x_51831 Int) (y_1966 Int) (l_38 list_204))
	(=> (and (length_36 x_51831 l_38) (add_308 x_51830 (S_391 Z_1749) x_51831)) (length_36 x_51830 (cons_204 y_1966 l_38)))))
(assert (length_36 Z_1749 nil_232))
(declare-fun drop_48 (list_204 Int list_204) Bool)
(assert (forall ((x_51833 list_204) (x_51810 Int))
	(=> (le_287 x_51810 Z_1749) (drop_48 x_51833 x_51810 x_51833))))
(assert (forall ((x_51852 Int) (x_51834 list_204) (z_1747 Int) (xs_561 list_204) (x_51810 Int))
	(=> (and (gt_290 x_51810 Z_1749) (drop_48 x_51834 x_51852 xs_561) (minus_305 x_51852 x_51810 (S_391 Z_1749))) (drop_48 x_51834 x_51810 (cons_204 z_1747 xs_561)))))
(assert (forall ((x_51836 list_204) (x_51810 Int))
	(=> (le_287 x_51810 Z_1749) (drop_48 x_51836 x_51810 x_51836))))
(assert (forall ((x_51810 Int))
	(=> (gt_290 x_51810 Z_1749) (drop_48 nil_232 x_51810 nil_232))))
(declare-fun msorttd_4 (list_204 list_204) Bool)
(assert (forall ((x_51839 list_204) (x_51840 list_204) (x_51841 list_204) (x_51842 list_204) (x_51843 list_204) (x_51838 Int) (k_11 Int) (x_51812 Int) (x_51813 list_204) (y_1968 Int))
	(=> (and (take_46 x_51840 k_11 (cons_204 y_1968 (cons_204 x_51812 x_51813))) (msorttd_4 x_51841 x_51840) (drop_48 x_51842 k_11 (cons_204 y_1968 (cons_204 x_51812 x_51813))) (msorttd_4 x_51843 x_51842) (lmerge_14 x_51839 x_51841 x_51843) (length_36 x_51838 (cons_204 y_1968 (cons_204 x_51812 x_51813))) (div_287 k_11 x_51838 (S_391 (S_391 Z_1749)))) (msorttd_4 x_51839 (cons_204 y_1968 (cons_204 x_51812 x_51813))))))
(assert (forall ((y_1968 Int))
	(msorttd_4 (cons_204 y_1968 nil_232) (cons_204 y_1968 nil_232))))
(assert (msorttd_4 nil_232 nil_232))
(assert (forall ((x_51847 list_204) (xs_562 list_204))
	(=> (and true (msorttd_4 x_51847 xs_562) (ordered_23 false_287 x_51847)) false)))
(check-sat)
